c description: Random 3-CNF over 16 variables and 80 clauses
p cnf 16 80
-4 7 -14 0
6 -12 13 0
-5 12 16 0
-6 -11 -12 0
2 7 -10 0
-7 -15 -16 0
-3 -13 -14 0
5 9 -15 0
5 -8 -11 0
-4 9 -16 0
-1 4 14 0
4 -12 14 0
-3 -12 15 0
3 -8 9 0
4 10 14 0
-6 -7 13 0
3 -5 7 0
-2 11 16 0
9 -13 16 0
2 8 -14 0
-2 9 -14 0
-12 13 16 0
10 -14 -15 0
4 8 -15 0
1 -9 15 0
2 4 8 0
6 9 15 0
-3 -6 -11 0
-1 2 -13 0
-4 -8 11 0
4 -6 -13 0
-2 -5 -11 0
-7 9 16 0
-5 -11 15 0
9 11 16 0
3 6 -16 0
-10 -11 13 0
-2 5 7 0
-1 6 8 0
9 10 -13 0
-2 -11 -13 0
8 -9 -13 0
8 -10 -11 0
11 -15 -16 0
2 -8 -13 0
2 3 -15 0
9 10 11 0
-9 -14 -15 0
8 -9 15 0
8 9 13 0
1 -7 -13 0
-9 -11 -12 0
5 9 13 0
7 -10 15 0
-3 6 12 0
10 -12 -16 0
10 -11 -16 0
9 -13 14 0
1 -9 14 0
-5 9 13 0
-1 8 -12 0
-6 -9 -12 0
-5 -7 11 0
1 4 -6 0
-5 10 -14 0
4 7 -12 0
3 4 -15 0
2 -5 -9 0
1 6 -9 0
-4 7 13 0
-9 12 16 0
-6 9 -12 0
4 -7 13 0
1 12 -13 0
-11 13 -15 0
5 -7 -12 0
-8 12 -13 0
4 8 -11 0
4 -13 14 0
-7 -11 16 0